% File represents an instance of a Composite Structure problem to be solved by a CP framework
% Created on 2025-03-26 10:42:18.851
T = 56;
n = 36;
m = 60;
edges = [(2, 1),
(8, 7),
(14, 13),
(20, 19),
(26, 25),
(31, 32),
(2, 3),
(9, 8),
(15, 14),
(20, 21),
(26, 27),
(32, 33),
(4, 3),
(9, 10),
(15, 16),
(22, 21),
(27, 28),
(33, 34),
(5, 4),
(11, 10),
(17, 16),
(22, 23),
(28, 29),
(34, 35),
(5, 6),
(11, 12),
(17, 18),
(24, 23),
(30, 29),
(36, 35),
(1, 7),
(7, 13),
(19, 13),
(25, 19),
(31, 25),
(2, 8),
(8, 14),
(20, 14),
(26, 20),
(26, 32),
(9, 3),
(9, 15),
(15, 21),
(27, 21),
(27, 33),
(4, 10),
(10, 16),
(22, 16),
(22, 28),
(28, 34),
(5, 11),
(11, 17),
(17, 23),
(23, 29),
(29, 35),
(6, 12),
(12, 18),
(24, 18),
(24, 30),
(30, 36)];
counts = [|10, 14, 10, 12,
|12, 14, 12, 12,
|12, 12, 12, 12,
|12, 12, 12, 16,
|14, 12, 14, 16,
|14, 12, 14, 14,
|10, 14, 10, 6,
|12, 14, 12, 6,
|12, 14, 12, 12,
|12, 12, 12, 12,
|12, 12, 12, 16,
|12, 12, 12, 14,
|10, 14, 10, 2,
|12, 14, 12, 2,
|12, 14, 12, 6,
|12, 12, 12, 6,
|12, 12, 12, 12,
|12, 12, 12, 8,
|12, 14, 12, 2,
|12, 14, 12, 6,
|10, 14, 10, 6,
|12, 14, 12, 6,
|12, 12, 12, 6,
|12, 12, 12, 10,
|12, 16, 12, 2,
|12, 16, 12, 8,
|12, 16, 12, 6,
|12, 12, 12, 6,
|12, 10, 12, 6,
|12, 12, 12, 8,
|14, 16, 14, 4,
|12, 16, 12, 4,
|12, 14, 12, 2,
|12, 10, 12, 2,
|12, 8, 12, 2,
|12, 12, 12, 2|];
